c Generated after 1 tries
c Graph with 200 nodes and 1250 edges, Max edges:19900
c generated from an undirected graph
c to solve unweighted MaxCut
p cnf 200 2500
1 14 0
-1 -14 0
1 44 0
-1 -44 0
1 60 0
-1 -60 0
1 70 0
-1 -70 0
1 80 0
-1 -80 0
1 89 0
-1 -89 0
1 94 0
-1 -94 0
1 124 0
-1 -124 0
1 127 0
-1 -127 0
1 133 0
-1 -133 0
1 188 0
-1 -188 0
1 189 0
-1 -189 0
2 7 0
-2 -7 0
2 9 0
-2 -9 0
2 54 0
-2 -54 0
2 69 0
-2 -69 0
2 137 0
-2 -137 0
2 143 0
-2 -143 0
2 154 0
-2 -154 0
2 172 0
-2 -172 0
2 176 0
-2 -176 0
2 188 0
-2 -188 0
2 191 0
-2 -191 0
3 8 0
-3 -8 0
3 17 0
-3 -17 0
3 29 0
-3 -29 0
3 45 0
-3 -45 0
3 56 0
-3 -56 0
3 71 0
-3 -71 0
3 73 0
-3 -73 0
3 82 0
-3 -82 0
3 97 0
-3 -97 0
3 101 0
-3 -101 0
3 108 0
-3 -108 0
3 118 0
-3 -118 0
3 136 0
-3 -136 0
3 160 0
-3 -160 0
3 164 0
-3 -164 0
3 184 0
-3 -184 0
3 190 0
-3 -190 0
4 6 0
-4 -6 0
4 9 0
-4 -9 0
4 35 0
-4 -35 0
4 48 0
-4 -48 0
4 55 0
-4 -55 0
4 56 0
-4 -56 0
4 87 0
-4 -87 0
4 109 0
-4 -109 0
4 111 0
-4 -111 0
4 137 0
-4 -137 0
4 173 0
-4 -173 0
4 177 0
-4 -177 0
4 178 0
-4 -178 0
4 189 0
-4 -189 0
4 200 0
-4 -200 0
5 16 0
-5 -16 0
5 34 0
-5 -34 0
5 42 0
-5 -42 0
5 63 0
-5 -63 0
5 66 0
-5 -66 0
5 79 0
-5 -79 0
5 83 0
-5 -83 0
5 86 0
-5 -86 0
5 140 0
-5 -140 0
5 187 0
-5 -187 0
5 191 0
-5 -191 0
5 195 0
-5 -195 0
6 14 0
-6 -14 0
6 68 0
-6 -68 0
6 76 0
-6 -76 0
6 93 0
-6 -93 0
6 194 0
-6 -194 0
6 196 0
-6 -196 0
6 198 0
-6 -198 0
6 200 0
-6 -200 0
7 30 0
-7 -30 0
7 32 0
-7 -32 0
7 44 0
-7 -44 0
7 46 0
-7 -46 0
7 58 0
-7 -58 0
7 91 0
-7 -91 0
7 93 0
-7 -93 0
7 113 0
-7 -113 0
7 120 0
-7 -120 0
7 136 0
-7 -136 0
7 159 0
-7 -159 0
7 168 0
-7 -168 0
7 175 0
-7 -175 0
8 9 0
-8 -9 0
8 10 0
-8 -10 0
8 18 0
-8 -18 0
8 40 0
-8 -40 0
8 43 0
-8 -43 0
8 50 0
-8 -50 0
8 69 0
-8 -69 0
8 102 0
-8 -102 0
8 125 0
-8 -125 0
8 144 0
-8 -144 0
8 150 0
-8 -150 0
8 156 0
-8 -156 0
8 176 0
-8 -176 0
8 179 0
-8 -179 0
8 180 0
-8 -180 0
8 190 0
-8 -190 0
9 13 0
-9 -13 0
9 18 0
-9 -18 0
9 26 0
-9 -26 0
9 51 0
-9 -51 0
9 82 0
-9 -82 0
9 103 0
-9 -103 0
9 118 0
-9 -118 0
9 134 0
-9 -134 0
9 141 0
-9 -141 0
9 150 0
-9 -150 0
9 161 0
-9 -161 0
9 181 0
-9 -181 0
9 187 0
-9 -187 0
9 199 0
-9 -199 0
10 49 0
-10 -49 0
10 50 0
-10 -50 0
10 67 0
-10 -67 0
10 87 0
-10 -87 0
10 163 0
-10 -163 0
10 164 0
-10 -164 0
10 177 0
-10 -177 0
10 183 0
-10 -183 0
11 57 0
-11 -57 0
11 62 0
-11 -62 0
11 63 0
-11 -63 0
11 81 0
-11 -81 0
11 91 0
-11 -91 0
11 129 0
-11 -129 0
11 151 0
-11 -151 0
11 158 0
-11 -158 0
11 161 0
-11 -161 0
11 197 0
-11 -197 0
12 18 0
-12 -18 0
12 19 0
-12 -19 0
12 30 0
-12 -30 0
12 51 0
-12 -51 0
12 55 0
-12 -55 0
12 66 0
-12 -66 0
12 68 0
-12 -68 0
12 69 0
-12 -69 0
12 96 0
-12 -96 0
12 115 0
-12 -115 0
12 139 0
-12 -139 0
12 153 0
-12 -153 0
12 157 0
-12 -157 0
12 161 0
-12 -161 0
12 193 0
-12 -193 0
13 33 0
-13 -33 0
13 38 0
-13 -38 0
13 86 0
-13 -86 0
13 91 0
-13 -91 0
13 99 0
-13 -99 0
13 108 0
-13 -108 0
13 114 0
-13 -114 0
13 119 0
-13 -119 0
13 120 0
-13 -120 0
13 125 0
-13 -125 0
13 128 0
-13 -128 0
13 131 0
-13 -131 0
13 152 0
-13 -152 0
13 160 0
-13 -160 0
13 165 0
-13 -165 0
13 172 0
-13 -172 0
14 20 0
-14 -20 0
14 33 0
-14 -33 0
14 51 0
-14 -51 0
14 55 0
-14 -55 0
14 102 0
-14 -102 0
14 148 0
-14 -148 0
14 160 0
-14 -160 0
15 22 0
-15 -22 0
15 43 0
-15 -43 0
15 45 0
-15 -45 0
15 52 0
-15 -52 0
15 78 0
-15 -78 0
15 91 0
-15 -91 0
15 119 0
-15 -119 0
15 131 0
-15 -131 0
15 150 0
-15 -150 0
15 153 0
-15 -153 0
15 155 0
-15 -155 0
15 171 0
-15 -171 0
15 173 0
-15 -173 0
15 185 0
-15 -185 0
15 186 0
-15 -186 0
16 19 0
-16 -19 0
16 29 0
-16 -29 0
16 30 0
-16 -30 0
16 69 0
-16 -69 0
16 82 0
-16 -82 0
16 96 0
-16 -96 0
16 109 0
-16 -109 0
16 117 0
-16 -117 0
16 137 0
-16 -137 0
16 143 0
-16 -143 0
16 155 0
-16 -155 0
16 158 0
-16 -158 0
16 198 0
-16 -198 0
16 200 0
-16 -200 0
17 31 0
-17 -31 0
17 34 0
-17 -34 0
17 113 0
-17 -113 0
17 145 0
-17 -145 0
17 158 0
-17 -158 0
17 181 0
-17 -181 0
18 20 0
-18 -20 0
18 27 0
-18 -27 0
18 40 0
-18 -40 0
18 54 0
-18 -54 0
18 109 0
-18 -109 0
18 110 0
-18 -110 0
18 153 0
-18 -153 0
18 197 0
-18 -197 0
19 24 0
-19 -24 0
19 121 0
-19 -121 0
19 124 0
-19 -124 0
19 138 0
-19 -138 0
19 179 0
-19 -179 0
19 191 0
-19 -191 0
20 41 0
-20 -41 0
20 62 0
-20 -62 0
20 65 0
-20 -65 0
20 103 0
-20 -103 0
20 118 0
-20 -118 0
20 125 0
-20 -125 0
20 137 0
-20 -137 0
20 139 0
-20 -139 0
20 152 0
-20 -152 0
20 187 0
-20 -187 0
21 24 0
-21 -24 0
21 59 0
-21 -59 0
21 63 0
-21 -63 0
21 64 0
-21 -64 0
21 81 0
-21 -81 0
21 89 0
-21 -89 0
21 116 0
-21 -116 0
21 123 0
-21 -123 0
21 139 0
-21 -139 0
21 144 0
-21 -144 0
21 184 0
-21 -184 0
21 187 0
-21 -187 0
21 188 0
-21 -188 0
21 193 0
-21 -193 0
22 31 0
-22 -31 0
22 61 0
-22 -61 0
22 65 0
-22 -65 0
22 83 0
-22 -83 0
22 124 0
-22 -124 0
22 130 0
-22 -130 0
22 132 0
-22 -132 0
22 137 0
-22 -137 0
22 152 0
-22 -152 0
23 39 0
-23 -39 0
23 43 0
-23 -43 0
23 53 0
-23 -53 0
23 56 0
-23 -56 0
23 61 0
-23 -61 0
23 92 0
-23 -92 0
23 94 0
-23 -94 0
23 97 0
-23 -97 0
24 33 0
-24 -33 0
24 47 0
-24 -47 0
24 62 0
-24 -62 0
24 81 0
-24 -81 0
24 88 0
-24 -88 0
24 94 0
-24 -94 0
24 154 0
-24 -154 0
24 161 0
-24 -161 0
24 165 0
-24 -165 0
24 174 0
-24 -174 0
24 175 0
-24 -175 0
24 196 0
-24 -196 0
25 27 0
-25 -27 0
25 30 0
-25 -30 0
25 59 0
-25 -59 0
25 74 0
-25 -74 0
25 82 0
-25 -82 0
25 98 0
-25 -98 0
25 111 0
-25 -111 0
25 154 0
-25 -154 0
25 158 0
-25 -158 0
25 169 0
-25 -169 0
26 29 0
-26 -29 0
26 44 0
-26 -44 0
26 53 0
-26 -53 0
26 55 0
-26 -55 0
26 57 0
-26 -57 0
26 71 0
-26 -71 0
26 77 0
-26 -77 0
26 96 0
-26 -96 0
26 142 0
-26 -142 0
26 179 0
-26 -179 0
27 54 0
-27 -54 0
27 73 0
-27 -73 0
27 82 0
-27 -82 0
27 83 0
-27 -83 0
27 107 0
-27 -107 0
27 111 0
-27 -111 0
27 125 0
-27 -125 0
27 136 0
-27 -136 0
27 158 0
-27 -158 0
27 159 0
-27 -159 0
27 178 0
-27 -178 0
27 189 0
-27 -189 0
28 36 0
-28 -36 0
28 59 0
-28 -59 0
28 101 0
-28 -101 0
28 103 0
-28 -103 0
28 138 0
-28 -138 0
28 143 0
-28 -143 0
28 163 0
-28 -163 0
28 173 0
-28 -173 0
28 195 0
-28 -195 0
28 196 0
-28 -196 0
29 49 0
-29 -49 0
29 103 0
-29 -103 0
29 106 0
-29 -106 0
29 113 0
-29 -113 0
29 127 0
-29 -127 0
29 132 0
-29 -132 0
29 136 0
-29 -136 0
29 153 0
-29 -153 0
29 172 0
-29 -172 0
30 61 0
-30 -61 0
30 85 0
-30 -85 0
30 132 0
-30 -132 0
30 138 0
-30 -138 0
30 168 0
-30 -168 0
31 48 0
-31 -48 0
31 64 0
-31 -64 0
31 76 0
-31 -76 0
31 80 0
-31 -80 0
31 82 0
-31 -82 0
31 95 0
-31 -95 0
31 100 0
-31 -100 0
31 105 0
-31 -105 0
31 153 0
-31 -153 0
31 161 0
-31 -161 0
31 178 0
-31 -178 0
31 181 0
-31 -181 0
31 184 0
-31 -184 0
32 43 0
-32 -43 0
32 47 0
-32 -47 0
32 56 0
-32 -56 0
32 78 0
-32 -78 0
32 92 0
-32 -92 0
32 153 0
-32 -153 0
32 163 0
-32 -163 0
32 164 0
-32 -164 0
32 178 0
-32 -178 0
32 187 0
-32 -187 0
32 189 0
-32 -189 0
32 200 0
-32 -200 0
33 37 0
-33 -37 0
33 47 0
-33 -47 0
33 62 0
-33 -62 0
33 110 0
-33 -110 0
33 124 0
-33 -124 0
33 147 0
-33 -147 0
33 172 0
-33 -172 0
33 182 0
-33 -182 0
34 56 0
-34 -56 0
34 79 0
-34 -79 0
34 89 0
-34 -89 0
34 92 0
-34 -92 0
34 102 0
-34 -102 0
34 117 0
-34 -117 0
34 151 0
-34 -151 0
34 154 0
-34 -154 0
34 170 0
-34 -170 0
35 48 0
-35 -48 0
35 49 0
-35 -49 0
35 71 0
-35 -71 0
35 74 0
-35 -74 0
35 94 0
-35 -94 0
35 110 0
-35 -110 0
35 112 0
-35 -112 0
35 116 0
-35 -116 0
35 125 0
-35 -125 0
35 141 0
-35 -141 0
35 145 0
-35 -145 0
36 64 0
-36 -64 0
36 69 0
-36 -69 0
36 88 0
-36 -88 0
36 95 0
-36 -95 0
36 111 0
-36 -111 0
36 118 0
-36 -118 0
36 135 0
-36 -135 0
36 154 0
-36 -154 0
36 156 0
-36 -156 0
36 191 0
-36 -191 0
36 194 0
-36 -194 0
37 38 0
-37 -38 0
37 82 0
-37 -82 0
37 109 0
-37 -109 0
37 127 0
-37 -127 0
37 137 0
-37 -137 0
37 187 0
-37 -187 0
38 48 0
-38 -48 0
38 52 0
-38 -52 0
38 73 0
-38 -73 0
38 112 0
-38 -112 0
38 145 0
-38 -145 0
38 178 0
-38 -178 0
38 192 0
-38 -192 0
39 41 0
-39 -41 0
39 51 0
-39 -51 0
39 68 0
-39 -68 0
39 77 0
-39 -77 0
39 126 0
-39 -126 0
39 176 0
-39 -176 0
39 191 0
-39 -191 0
39 199 0
-39 -199 0
40 57 0
-40 -57 0
40 62 0
-40 -62 0
40 87 0
-40 -87 0
40 95 0
-40 -95 0
40 101 0
-40 -101 0
40 118 0
-40 -118 0
40 122 0
-40 -122 0
40 131 0
-40 -131 0
40 149 0
-40 -149 0
40 161 0
-40 -161 0
40 180 0
-40 -180 0
40 185 0
-40 -185 0
40 192 0
-40 -192 0
41 76 0
-41 -76 0
41 83 0
-41 -83 0
41 91 0
-41 -91 0
41 106 0
-41 -106 0
41 116 0
-41 -116 0
41 120 0
-41 -120 0
41 135 0
-41 -135 0
41 137 0
-41 -137 0
41 146 0
-41 -146 0
41 152 0
-41 -152 0
41 200 0
-41 -200 0
42 66 0
-42 -66 0
42 68 0
-42 -68 0
42 106 0
-42 -106 0
42 133 0
-42 -133 0
42 134 0
-42 -134 0
42 146 0
-42 -146 0
42 149 0
-42 -149 0
42 158 0
-42 -158 0
42 162 0
-42 -162 0
42 191 0
-42 -191 0
43 53 0
-43 -53 0
43 80 0
-43 -80 0
43 89 0
-43 -89 0
43 116 0
-43 -116 0
43 123 0
-43 -123 0
44 45 0
-44 -45 0
44 58 0
-44 -58 0
44 85 0
-44 -85 0
44 88 0
-44 -88 0
44 102 0
-44 -102 0
44 131 0
-44 -131 0
44 138 0
-44 -138 0
44 147 0
-44 -147 0
44 165 0
-44 -165 0
44 168 0
-44 -168 0
45 60 0
-45 -60 0
45 72 0
-45 -72 0
45 76 0
-45 -76 0
45 79 0
-45 -79 0
45 81 0
-45 -81 0
45 109 0
-45 -109 0
45 116 0
-45 -116 0
45 121 0
-45 -121 0
45 134 0
-45 -134 0
45 135 0
-45 -135 0
45 141 0
-45 -141 0
45 154 0
-45 -154 0
45 156 0
-45 -156 0
45 176 0
-45 -176 0
45 189 0
-45 -189 0
46 56 0
-46 -56 0
46 62 0
-46 -62 0
46 71 0
-46 -71 0
46 80 0
-46 -80 0
46 92 0
-46 -92 0
46 96 0
-46 -96 0
46 114 0
-46 -114 0
46 119 0
-46 -119 0
46 125 0
-46 -125 0
46 142 0
-46 -142 0
46 196 0
-46 -196 0
47 55 0
-47 -55 0
47 58 0
-47 -58 0
47 89 0
-47 -89 0
47 93 0
-47 -93 0
47 120 0
-47 -120 0
47 129 0
-47 -129 0
47 173 0
-47 -173 0
48 62 0
-48 -62 0
48 93 0
-48 -93 0
48 121 0
-48 -121 0
48 125 0
-48 -125 0
48 132 0
-48 -132 0
48 144 0
-48 -144 0
48 149 0
-48 -149 0
48 169 0
-48 -169 0
49 58 0
-49 -58 0
49 66 0
-49 -66 0
49 119 0
-49 -119 0
49 126 0
-49 -126 0
49 147 0
-49 -147 0
49 151 0
-49 -151 0
49 177 0
-49 -177 0
49 182 0
-49 -182 0
49 196 0
-49 -196 0
50 53 0
-50 -53 0
50 74 0
-50 -74 0
50 99 0
-50 -99 0
50 109 0
-50 -109 0
50 128 0
-50 -128 0
50 141 0
-50 -141 0
50 153 0
-50 -153 0
50 200 0
-50 -200 0
51 75 0
-51 -75 0
51 121 0
-51 -121 0
51 182 0
-51 -182 0
51 192 0
-51 -192 0
51 193 0
-51 -193 0
52 57 0
-52 -57 0
52 83 0
-52 -83 0
52 90 0
-52 -90 0
52 95 0
-52 -95 0
52 99 0
-52 -99 0
52 123 0
-52 -123 0
52 130 0
-52 -130 0
52 143 0
-52 -143 0
52 144 0
-52 -144 0
52 161 0
-52 -161 0
52 189 0
-52 -189 0
53 66 0
-53 -66 0
53 70 0
-53 -70 0
53 76 0
-53 -76 0
53 83 0
-53 -83 0
53 107 0
-53 -107 0
53 120 0
-53 -120 0
53 127 0
-53 -127 0
53 152 0
-53 -152 0
53 158 0
-53 -158 0
53 172 0
-53 -172 0
53 184 0
-53 -184 0
53 187 0
-53 -187 0
53 194 0
-53 -194 0
53 199 0
-53 -199 0
54 73 0
-54 -73 0
54 86 0
-54 -86 0
54 110 0
-54 -110 0
54 112 0
-54 -112 0
54 120 0
-54 -120 0
55 69 0
-55 -69 0
55 77 0
-55 -77 0
55 84 0
-55 -84 0
55 98 0
-55 -98 0
55 109 0
-55 -109 0
55 120 0
-55 -120 0
55 125 0
-55 -125 0
55 136 0
-55 -136 0
56 57 0
-56 -57 0
56 88 0
-56 -88 0
56 89 0
-56 -89 0
56 112 0
-56 -112 0
56 116 0
-56 -116 0
56 160 0
-56 -160 0
56 162 0
-56 -162 0
56 181 0
-56 -181 0
56 188 0
-56 -188 0
56 194 0
-56 -194 0
57 60 0
-57 -60 0
57 95 0
-57 -95 0
57 108 0
-57 -108 0
57 122 0
-57 -122 0
57 142 0
-57 -142 0
57 150 0
-57 -150 0
57 166 0
-57 -166 0
57 170 0
-57 -170 0
57 175 0
-57 -175 0
58 108 0
-58 -108 0
58 114 0
-58 -114 0
58 126 0
-58 -126 0
58 133 0
-58 -133 0
58 142 0
-58 -142 0
58 147 0
-58 -147 0
58 173 0
-58 -173 0
58 178 0
-58 -178 0
58 190 0
-58 -190 0
59 66 0
-59 -66 0
59 67 0
-59 -67 0
59 83 0
-59 -83 0
59 109 0
-59 -109 0
59 115 0
-59 -115 0
59 119 0
-59 -119 0
59 153 0
-59 -153 0
59 161 0
-59 -161 0
59 182 0
-59 -182 0
60 61 0
-60 -61 0
60 86 0
-60 -86 0
60 99 0
-60 -99 0
60 118 0
-60 -118 0
60 122 0
-60 -122 0
60 145 0
-60 -145 0
60 156 0
-60 -156 0
60 158 0
-60 -158 0
60 174 0
-60 -174 0
61 74 0
-61 -74 0
61 96 0
-61 -96 0
61 99 0
-61 -99 0
61 104 0
-61 -104 0
61 136 0
-61 -136 0
61 150 0
-61 -150 0
61 165 0
-61 -165 0
61 170 0
-61 -170 0
61 198 0
-61 -198 0
62 105 0
-62 -105 0
62 128 0
-62 -128 0
62 133 0
-62 -133 0
62 148 0
-62 -148 0
62 156 0
-62 -156 0
62 166 0
-62 -166 0
62 200 0
-62 -200 0
63 101 0
-63 -101 0
63 127 0
-63 -127 0
63 142 0
-63 -142 0
63 156 0
-63 -156 0
64 73 0
-64 -73 0
64 87 0
-64 -87 0
64 94 0
-64 -94 0
64 98 0
-64 -98 0
64 107 0
-64 -107 0
64 108 0
-64 -108 0
64 115 0
-64 -115 0
64 124 0
-64 -124 0
64 126 0
-64 -126 0
64 132 0
-64 -132 0
64 155 0
-64 -155 0
64 163 0
-64 -163 0
64 164 0
-64 -164 0
64 167 0
-64 -167 0
64 168 0
-64 -168 0
64 172 0
-64 -172 0
64 176 0
-64 -176 0
64 190 0
-64 -190 0
64 195 0
-64 -195 0
65 67 0
-65 -67 0
65 96 0
-65 -96 0
65 97 0
-65 -97 0
65 100 0
-65 -100 0
65 108 0
-65 -108 0
65 159 0
-65 -159 0
65 195 0
-65 -195 0
66 67 0
-66 -67 0
66 69 0
-66 -69 0
66 112 0
-66 -112 0
66 121 0
-66 -121 0
66 123 0
-66 -123 0
66 134 0
-66 -134 0
66 167 0
-66 -167 0
66 193 0
-66 -193 0
67 76 0
-67 -76 0
67 80 0
-67 -80 0
67 90 0
-67 -90 0
67 95 0
-67 -95 0
67 99 0
-67 -99 0
67 106 0
-67 -106 0
67 128 0
-67 -128 0
67 138 0
-67 -138 0
67 143 0
-67 -143 0
67 150 0
-67 -150 0
67 177 0
-67 -177 0
68 71 0
-68 -71 0
68 94 0
-68 -94 0
68 109 0
-68 -109 0
68 138 0
-68 -138 0
68 149 0
-68 -149 0
68 157 0
-68 -157 0
68 183 0
-68 -183 0
68 195 0
-68 -195 0
68 196 0
-68 -196 0
69 96 0
-69 -96 0
69 122 0
-69 -122 0
69 135 0
-69 -135 0
69 150 0
-69 -150 0
69 157 0
-69 -157 0
69 166 0
-69 -166 0
69 181 0
-69 -181 0
70 72 0
-70 -72 0
70 80 0
-70 -80 0
70 84 0
-70 -84 0
70 91 0
-70 -91 0
70 109 0
-70 -109 0
70 133 0
-70 -133 0
70 199 0
-70 -199 0
71 80 0
-71 -80 0
71 95 0
-71 -95 0
71 105 0
-71 -105 0
71 120 0
-71 -120 0
71 131 0
-71 -131 0
71 142 0
-71 -142 0
71 191 0
-71 -191 0
72 81 0
-72 -81 0
72 86 0
-72 -86 0
72 90 0
-72 -90 0
72 132 0
-72 -132 0
72 142 0
-72 -142 0
72 188 0
-72 -188 0
73 85 0
-73 -85 0
73 101 0
-73 -101 0
73 130 0
-73 -130 0
73 131 0
-73 -131 0
73 157 0
-73 -157 0
73 178 0
-73 -178 0
73 185 0
-73 -185 0
73 190 0
-73 -190 0
73 194 0
-73 -194 0
73 195 0
-73 -195 0
74 77 0
-74 -77 0
74 79 0
-74 -79 0
74 87 0
-74 -87 0
74 95 0
-74 -95 0
74 96 0
-74 -96 0
74 97 0
-74 -97 0
74 103 0
-74 -103 0
74 131 0
-74 -131 0
74 132 0
-74 -132 0
74 133 0
-74 -133 0
74 144 0
-74 -144 0
74 152 0
-74 -152 0
74 158 0
-74 -158 0
74 167 0
-74 -167 0
74 190 0
-74 -190 0
74 192 0
-74 -192 0
75 96 0
-75 -96 0
75 98 0
-75 -98 0
75 100 0
-75 -100 0
75 116 0
-75 -116 0
75 135 0
-75 -135 0
75 165 0
-75 -165 0
75 182 0
-75 -182 0
76 90 0
-76 -90 0
76 93 0
-76 -93 0
76 123 0
-76 -123 0
76 130 0
-76 -130 0
76 142 0
-76 -142 0
76 159 0
-76 -159 0
76 169 0
-76 -169 0
76 177 0
-76 -177 0
76 179 0
-76 -179 0
76 181 0
-76 -181 0
76 182 0
-76 -182 0
76 183 0
-76 -183 0
76 185 0
-76 -185 0
76 191 0
-76 -191 0
77 78 0
-77 -78 0
77 81 0
-77 -81 0
77 93 0
-77 -93 0
77 102 0
-77 -102 0
77 109 0
-77 -109 0
77 112 0
-77 -112 0
77 126 0
-77 -126 0
77 127 0
-77 -127 0
77 144 0
-77 -144 0
77 146 0
-77 -146 0
77 192 0
-77 -192 0
77 198 0
-77 -198 0
78 90 0
-78 -90 0
78 100 0
-78 -100 0
78 112 0
-78 -112 0
78 115 0
-78 -115 0
78 116 0
-78 -116 0
78 122 0
-78 -122 0
78 137 0
-78 -137 0
78 147 0
-78 -147 0
78 184 0
-78 -184 0
78 188 0
-78 -188 0
78 197 0
-78 -197 0
78 198 0
-78 -198 0
79 88 0
-79 -88 0
79 104 0
-79 -104 0
79 109 0
-79 -109 0
79 119 0
-79 -119 0
79 128 0
-79 -128 0
79 133 0
-79 -133 0
79 154 0
-79 -154 0
79 159 0
-79 -159 0
79 176 0
-79 -176 0
79 193 0
-79 -193 0
79 194 0
-79 -194 0
79 195 0
-79 -195 0
80 118 0
-80 -118 0
80 124 0
-80 -124 0
80 136 0
-80 -136 0
80 154 0
-80 -154 0
80 161 0
-80 -161 0
80 169 0
-80 -169 0
80 182 0
-80 -182 0
80 188 0
-80 -188 0
81 86 0
-81 -86 0
81 91 0
-81 -91 0
81 105 0
-81 -105 0
81 106 0
-81 -106 0
81 119 0
-81 -119 0
81 141 0
-81 -141 0
81 149 0
-81 -149 0
81 167 0
-81 -167 0
81 176 0
-81 -176 0
81 179 0
-81 -179 0
81 188 0
-81 -188 0
82 88 0
-82 -88 0
82 96 0
-82 -96 0
82 121 0
-82 -121 0
82 193 0
-82 -193 0
83 103 0
-83 -103 0
83 130 0
-83 -130 0
83 140 0
-83 -140 0
83 148 0
-83 -148 0
83 181 0
-83 -181 0
83 195 0
-83 -195 0
84 109 0
-84 -109 0
84 129 0
-84 -129 0
84 149 0
-84 -149 0
84 156 0
-84 -156 0
84 159 0
-84 -159 0
84 169 0
-84 -169 0
84 177 0
-84 -177 0
84 187 0
-84 -187 0
84 199 0
-84 -199 0
85 108 0
-85 -108 0
85 114 0
-85 -114 0
85 121 0
-85 -121 0
85 128 0
-85 -128 0
85 178 0
-85 -178 0
85 200 0
-85 -200 0
86 105 0
-86 -105 0
86 108 0
-86 -108 0
86 130 0
-86 -130 0
86 132 0
-86 -132 0
86 145 0
-86 -145 0
87 113 0
-87 -113 0
87 128 0
-87 -128 0
87 140 0
-87 -140 0
87 145 0
-87 -145 0
87 166 0
-87 -166 0
87 170 0
-87 -170 0
88 135 0
-88 -135 0
88 140 0
-88 -140 0
88 143 0
-88 -143 0
88 177 0
-88 -177 0
89 130 0
-89 -130 0
89 137 0
-89 -137 0
89 148 0
-89 -148 0
89 149 0
-89 -149 0
89 176 0
-89 -176 0
89 191 0
-89 -191 0
90 110 0
-90 -110 0
90 127 0
-90 -127 0
90 165 0
-90 -165 0
91 131 0
-91 -131 0
91 159 0
-91 -159 0
91 174 0
-91 -174 0
92 109 0
-92 -109 0
92 119 0
-92 -119 0
92 124 0
-92 -124 0
92 130 0
-92 -130 0
92 147 0
-92 -147 0
92 169 0
-92 -169 0
92 172 0
-92 -172 0
93 141 0
-93 -141 0
93 152 0
-93 -152 0
93 163 0
-93 -163 0
94 135 0
-94 -135 0
94 148 0
-94 -148 0
95 164 0
-95 -164 0
95 168 0
-95 -168 0
95 196 0
-95 -196 0
96 102 0
-96 -102 0
96 124 0
-96 -124 0
96 132 0
-96 -132 0
96 167 0
-96 -167 0
96 172 0
-96 -172 0
97 102 0
-97 -102 0
97 113 0
-97 -113 0
97 130 0
-97 -130 0
97 175 0
-97 -175 0
97 199 0
-97 -199 0
98 142 0
-98 -142 0
98 155 0
-98 -155 0
98 166 0
-98 -166 0
99 118 0
-99 -118 0
99 126 0
-99 -126 0
99 166 0
-99 -166 0
100 113 0
-100 -113 0
100 140 0
-100 -140 0
100 145 0
-100 -145 0
100 149 0
-100 -149 0
100 154 0
-100 -154 0
100 182 0
-100 -182 0
100 185 0
-100 -185 0
101 114 0
-101 -114 0
101 129 0
-101 -129 0
101 147 0
-101 -147 0
101 150 0
-101 -150 0
101 162 0
-101 -162 0
101 168 0
-101 -168 0
101 197 0
-101 -197 0
102 117 0
-102 -117 0
102 125 0
-102 -125 0
102 135 0
-102 -135 0
102 137 0
-102 -137 0
102 160 0
-102 -160 0
102 161 0
-102 -161 0
102 168 0
-102 -168 0
102 177 0
-102 -177 0
102 183 0
-102 -183 0
102 197 0
-102 -197 0
103 106 0
-103 -106 0
103 113 0
-103 -113 0
103 115 0
-103 -115 0
103 121 0
-103 -121 0
103 129 0
-103 -129 0
103 143 0
-103 -143 0
103 151 0
-103 -151 0
103 178 0
-103 -178 0
103 188 0
-103 -188 0
103 194 0
-103 -194 0
104 105 0
-104 -105 0
104 115 0
-104 -115 0
104 139 0
-104 -139 0
104 143 0
-104 -143 0
104 148 0
-104 -148 0
104 166 0
-104 -166 0
104 196 0
-104 -196 0
104 200 0
-104 -200 0
105 125 0
-105 -125 0
105 191 0
-105 -191 0
106 110 0
-106 -110 0
106 116 0
-106 -116 0
106 118 0
-106 -118 0
106 134 0
-106 -134 0
106 147 0
-106 -147 0
106 155 0
-106 -155 0
106 193 0
-106 -193 0
106 194 0
-106 -194 0
107 139 0
-107 -139 0
107 140 0
-107 -140 0
107 157 0
-107 -157 0
107 166 0
-107 -166 0
107 171 0
-107 -171 0
107 173 0
-107 -173 0
107 176 0
-107 -176 0
107 193 0
-107 -193 0
108 114 0
-108 -114 0
108 122 0
-108 -122 0
108 128 0
-108 -128 0
108 142 0
-108 -142 0
108 175 0
-108 -175 0
108 186 0
-108 -186 0
108 195 0
-108 -195 0
109 142 0
-109 -142 0
109 169 0
-109 -169 0
109 184 0
-109 -184 0
110 115 0
-110 -115 0
110 134 0
-110 -134 0
110 138 0
-110 -138 0
110 159 0
-110 -159 0
110 175 0
-110 -175 0
110 176 0
-110 -176 0
110 200 0
-110 -200 0
111 116 0
-111 -116 0
111 123 0
-111 -123 0
111 143 0
-111 -143 0
111 144 0
-111 -144 0
111 181 0
-111 -181 0
111 190 0
-111 -190 0
111 196 0
-111 -196 0
112 121 0
-112 -121 0
112 124 0
-112 -124 0
112 139 0
-112 -139 0
112 159 0
-112 -159 0
112 172 0
-112 -172 0
112 183 0
-112 -183 0
112 188 0
-112 -188 0
113 120 0
-113 -120 0
113 141 0
-113 -141 0
113 143 0
-113 -143 0
113 157 0
-113 -157 0
113 184 0
-113 -184 0
113 189 0
-113 -189 0
114 136 0
-114 -136 0
114 149 0
-114 -149 0
114 156 0
-114 -156 0
114 169 0
-114 -169 0
114 172 0
-114 -172 0
114 174 0
-114 -174 0
114 193 0
-114 -193 0
115 122 0
-115 -122 0
115 129 0
-115 -129 0
115 150 0
-115 -150 0
115 151 0
-115 -151 0
115 152 0
-115 -152 0
115 155 0
-115 -155 0
115 182 0
-115 -182 0
115 194 0
-115 -194 0
116 120 0
-116 -120 0
116 146 0
-116 -146 0
116 176 0
-116 -176 0
116 182 0
-116 -182 0
116 187 0
-116 -187 0
116 196 0
-116 -196 0
116 198 0
-116 -198 0
117 135 0
-117 -135 0
117 164 0
-117 -164 0
117 181 0
-117 -181 0
117 184 0
-117 -184 0
118 189 0
-118 -189 0
119 129 0
-119 -129 0
119 132 0
-119 -132 0
119 136 0
-119 -136 0
119 151 0
-119 -151 0
119 160 0
-119 -160 0
120 145 0
-120 -145 0
120 156 0
-120 -156 0
120 166 0
-120 -166 0
120 195 0
-120 -195 0
121 156 0
-121 -156 0
121 161 0
-121 -161 0
121 166 0
-121 -166 0
122 132 0
-122 -132 0
122 138 0
-122 -138 0
122 166 0
-122 -166 0
123 137 0
-123 -137 0
123 150 0
-123 -150 0
123 194 0
-123 -194 0
124 127 0
-124 -127 0
124 144 0
-124 -144 0
124 168 0
-124 -168 0
124 173 0
-124 -173 0
124 176 0
-124 -176 0
124 183 0
-124 -183 0
124 188 0
-124 -188 0
124 191 0
-124 -191 0
125 146 0
-125 -146 0
125 166 0
-125 -166 0
125 194 0
-125 -194 0
125 198 0
-125 -198 0
126 129 0
-126 -129 0
126 141 0
-126 -141 0
126 150 0
-126 -150 0
126 185 0
-126 -185 0
126 193 0
-126 -193 0
127 138 0
-127 -138 0
127 155 0
-127 -155 0
127 162 0
-127 -162 0
127 163 0
-127 -163 0
127 177 0
-127 -177 0
127 184 0
-127 -184 0
127 192 0
-127 -192 0
127 195 0
-127 -195 0
128 137 0
-128 -137 0
128 148 0
-128 -148 0
128 173 0
-128 -173 0
128 178 0
-128 -178 0
128 186 0
-128 -186 0
129 134 0
-129 -134 0
129 139 0
-129 -139 0
129 162 0
-129 -162 0
129 176 0
-129 -176 0
130 144 0
-130 -144 0
130 145 0
-130 -145 0
130 153 0
-130 -153 0
130 171 0
-130 -171 0
130 184 0
-130 -184 0
131 140 0
-131 -140 0
131 172 0
-131 -172 0
131 175 0
-131 -175 0
131 176 0
-131 -176 0
131 179 0
-131 -179 0
131 181 0
-131 -181 0
131 194 0
-131 -194 0
132 144 0
-132 -144 0
132 161 0
-132 -161 0
132 170 0
-132 -170 0
133 136 0
-133 -136 0
133 138 0
-133 -138 0
133 147 0
-133 -147 0
133 173 0
-133 -173 0
133 176 0
-133 -176 0
134 136 0
-134 -136 0
134 146 0
-134 -146 0
134 155 0
-134 -155 0
134 166 0
-134 -166 0
134 188 0
-134 -188 0
135 138 0
-135 -138 0
135 165 0
-135 -165 0
136 159 0
-136 -159 0
136 167 0
-136 -167 0
136 188 0
-136 -188 0
137 140 0
-137 -140 0
137 147 0
-137 -147 0
137 150 0
-137 -150 0
137 162 0
-137 -162 0
137 164 0
-137 -164 0
137 182 0
-137 -182 0
138 157 0
-138 -157 0
138 158 0
-138 -158 0
138 161 0
-138 -161 0
138 170 0
-138 -170 0
138 173 0
-138 -173 0
138 174 0
-138 -174 0
138 189 0
-138 -189 0
138 198 0
-138 -198 0
138 199 0
-138 -199 0
139 189 0
-139 -189 0
140 150 0
-140 -150 0
140 169 0
-140 -169 0
140 179 0
-140 -179 0
140 182 0
-140 -182 0
140 197 0
-140 -197 0
141 144 0
-141 -144 0
141 146 0
-141 -146 0
141 157 0
-141 -157 0
142 153 0
-142 -153 0
142 157 0
-142 -157 0
142 165 0
-142 -165 0
142 181 0
-142 -181 0
142 186 0
-142 -186 0
142 200 0
-142 -200 0
143 146 0
-143 -146 0
143 155 0
-143 -155 0
143 166 0
-143 -166 0
143 189 0
-143 -189 0
143 191 0
-143 -191 0
144 158 0
-144 -158 0
144 173 0
-144 -173 0
144 177 0
-144 -177 0
144 192 0
-144 -192 0
145 148 0
-145 -148 0
145 155 0
-145 -155 0
145 163 0
-145 -163 0
145 181 0
-145 -181 0
145 182 0
-145 -182 0
145 194 0
-145 -194 0
145 197 0
-145 -197 0
145 198 0
-145 -198 0
146 184 0
-146 -184 0
146 185 0
-146 -185 0
147 150 0
-147 -150 0
147 167 0
-147 -167 0
147 173 0
-147 -173 0
148 170 0
-148 -170 0
148 171 0
-148 -171 0
148 174 0
-148 -174 0
149 151 0
-149 -151 0
149 155 0
-149 -155 0
149 158 0
-149 -158 0
149 178 0
-149 -178 0
149 197 0
-149 -197 0
150 159 0
-150 -159 0
150 169 0
-150 -169 0
150 184 0
-150 -184 0
150 187 0
-150 -187 0
150 189 0
-150 -189 0
150 191 0
-150 -191 0
150 196 0
-150 -196 0
152 194 0
-152 -194 0
152 195 0
-152 -195 0
153 155 0
-153 -155 0
153 175 0
-153 -175 0
154 200 0
-154 -200 0
155 162 0
-155 -162 0
155 168 0
-155 -168 0
156 189 0
-156 -189 0
157 195 0
-157 -195 0
157 198 0
-157 -198 0
158 164 0
-158 -164 0
158 169 0
-158 -169 0
158 171 0
-158 -171 0
158 178 0
-158 -178 0
158 181 0
-158 -181 0
159 162 0
-159 -162 0
159 166 0
-159 -166 0
159 168 0
-159 -168 0
159 200 0
-159 -200 0
160 181 0
-160 -181 0
160 198 0
-160 -198 0
161 163 0
-161 -163 0
162 170 0
-162 -170 0
162 177 0
-162 -177 0
162 181 0
-162 -181 0
163 187 0
-163 -187 0
164 192 0
-164 -192 0
164 195 0
-164 -195 0
164 196 0
-164 -196 0
165 168 0
-165 -168 0
165 173 0
-165 -173 0
165 176 0
-165 -176 0
165 188 0
-165 -188 0
166 170 0
-166 -170 0
166 193 0
-166 -193 0
166 196 0
-166 -196 0
167 177 0
-167 -177 0
168 190 0
-168 -190 0
168 196 0
-168 -196 0
169 171 0
-169 -171 0
169 195 0
-169 -195 0
169 199 0
-169 -199 0
170 172 0
-170 -172 0
170 174 0
-170 -174 0
170 175 0
-170 -175 0
170 187 0
-170 -187 0
170 188 0
-170 -188 0
170 195 0
-170 -195 0
170 196 0
-170 -196 0
171 184 0
-171 -184 0
171 189 0
-171 -189 0
171 199 0
-171 -199 0
172 190 0
-172 -190 0
172 197 0
-172 -197 0
173 193 0
-173 -193 0
174 184 0
-174 -184 0
174 196 0
-174 -196 0
176 197 0
-176 -197 0
177 191 0
-177 -191 0
177 195 0
-177 -195 0
179 183 0
-179 -183 0
179 189 0
-179 -189 0
181 194 0
-181 -194 0
181 199 0
-181 -199 0
182 188 0
-182 -188 0
182 191 0
-182 -191 0
182 194 0
-182 -194 0
183 186 0
-183 -186 0
183 187 0
-183 -187 0
184 187 0
-184 -187 0
187 191 0
-187 -191 0
189 194 0
-189 -194 0
189 198 0
-189 -198 0
191 199 0
-191 -199 0
193 198 0
-193 -198 0
196 200 0
-196 -200 0
197 199 0
-197 -199 0
197 200 0
-197 -200 0
